
Gurobi 8.1.1 (win64) logging started 11/24/19 13:08:35

Changed value of parameter LogFile to logs/miss/ip/miss-07-15-0.log
   Prev: gurobi.log  Default: 
Changed value of parameter LogToConsole to 0
   Prev: 1  Min: 0  Max: 1  Default: 1
Changed value of parameter TimeLimit to 3600.0
   Prev: 1e+100  Min: 0.0  Max: 1e+100  Default: 1e+100
Optimize a model with 3178 rows, 1500 columns and 12103 nonzeros
Variable types: 0 continuous, 1500 integer (1485 binary)
Coefficient statistics:
  Matrix range     [1e+00, 2e+02]
  Objective range  [1e+00, 1e+00]
  Bounds range     [1e+00, 1e+00]
  RHS range        [1e+00, 3e+02]
Presolve removed 3 rows and 3 columns
Presolve time: 0.12s
Presolved: 3175 rows, 1497 columns, 12094 nonzeros
Variable types: 0 continuous, 1497 integer (1482 binary)

Root relaxation: objective 4.294118e+00, 752 iterations, 0.04 seconds

    Nodes    |    Current Node    |     Objective Bounds      |     Work
 Expl Unexpl |  Obj  Depth IntInf | Incumbent    BestBd   Gap | It/Node Time

     0     0    4.29412    0  151          -    4.29412      -     -    0s
     0     0    6.00000    0   59          -    6.00000      -     -    0s
     0     0    6.00000    0   49          -    6.00000      -     -    0s
     0     0    6.00000    0   49          -    6.00000      -     -    0s
     0     0    6.00000    0   17          -    6.00000      -     -    0s
     0     0    6.00000    0   17          -    6.00000      -     -    0s
     0     0    6.00000    0   42          -    6.00000      -     -    0s
     0     0    6.00000    0   13          -    6.00000      -     -    0s
     0     0    6.00000    0   13          -    6.00000      -     -    0s
     0     0    6.00000    0   23          -    6.00000      -     -    0s
     0     0    6.00000    0   35          -    6.00000      -     -    0s
     0     0    6.00000    0   15          -    6.00000      -     -    1s
     0     0    6.00000    0   15          -    6.00000      -     -    1s
     0     0    6.00000    0   14          -    6.00000      -     -    1s
     0     0    6.00000    0   14          -    6.00000      -     -    1s
H    0     0                      15.0000000    6.00000  60.0%     -    1s
     0     0    6.00000    0   26   15.00000    6.00000  60.0%     -    1s
H    0     0                      14.0000000    6.00000  57.1%     -    1s
H    0     0                      13.0000000    6.00000  53.8%     -    1s
     0     0    6.00000    0   36   13.00000    6.00000  53.8%     -    1s
     0     0    6.00000    0   19   13.00000    6.00000  53.8%     -    1s
     0     0    6.00000    0   44   13.00000    6.00000  53.8%     -    1s
H    0     0                      12.0000000    6.00000  50.0%     -    2s
     0     0    6.00000    0   42   12.00000    6.00000  50.0%     -    2s
     0     0    6.00000    0   16   12.00000    6.00000  50.0%     -    2s
     0     0    6.00000    0   21   12.00000    6.00000  50.0%     -    2s
     0     0    6.00000    0   21   12.00000    6.00000  50.0%     -    2s
     0     0    6.00000    0   19   12.00000    6.00000  50.0%     -    2s
     0     0    6.00000    0   19   12.00000    6.00000  50.0%     -    2s
     0     0    6.00000    0   13   12.00000    6.00000  50.0%     -    2s
     0     0    6.00000    0   17   12.00000    6.00000  50.0%     -    2s
     0     0    6.00000    0   20   12.00000    6.00000  50.0%     -    2s
     0     0    6.00000    0   15   12.00000    6.00000  50.0%     -    2s
     0     0    6.00000    0   10   12.00000    6.00000  50.0%     -    2s
     0     0    6.00000    0   12   12.00000    6.00000  50.0%     -    2s
H    0     0                      11.0000000    6.00000  45.5%     -    2s
     0     0    6.00000    0   49   11.00000    6.00000  45.5%     -    2s
     0     0    6.00000    0   49   11.00000    6.00000  45.5%     -    2s
     0     0    6.00000    0   10   11.00000    6.00000  45.5%     -    2s
     0     0    6.00000    0   32   11.00000    6.00000  45.5%     -    2s
     0     0    6.00000    0    6   11.00000    6.00000  45.5%     -    2s
     0     0    6.00000    0    6   11.00000    6.00000  45.5%     -    2s
     0     0    6.00000    0    6   11.00000    6.00000  45.5%     -    2s
     0     0    6.00000    0    7   11.00000    6.00000  45.5%     -    3s
     0     0    6.00000    0   13   11.00000    6.00000  45.5%     -    3s
     0     0    6.00000    0   13   11.00000    6.00000  45.5%     -    3s
     0     0    6.00000    0   33   11.00000    6.00000  45.5%     -    3s
     0     0    6.00000    0   39   11.00000    6.00000  45.5%     -    3s
H    0     0                      10.0000000    6.00000  40.0%     -    3s
     0     0    6.00000    0   15   10.00000    6.00000  40.0%     -    3s
     0     0    6.00000    0    8   10.00000    6.00000  40.0%     -    3s
     0     0    6.00000    0    8   10.00000    6.00000  40.0%     -    3s
     0     0    6.00000    0   10   10.00000    6.00000  40.0%     -    3s
     0     0    6.00000    0   12   10.00000    6.00000  40.0%     -    3s
     0     0    6.00000    0    9   10.00000    6.00000  40.0%     -    3s
     0     0    6.00000    0   25   10.00000    6.00000  40.0%     -    3s
     0     0    6.00000    0   12   10.00000    6.00000  40.0%     -    3s
     0     0    6.00000    0   12   10.00000    6.00000  40.0%     -    3s
     0     0    6.00000    0   11   10.00000    6.00000  40.0%     -    3s
     0     0    6.00000    0   11   10.00000    6.00000  40.0%     -    3s
     0     0    6.00000    0    9   10.00000    6.00000  40.0%     -    3s
     0     0    6.00000    0   25   10.00000    6.00000  40.0%     -    3s
     0     0    6.00000    0   25   10.00000    6.00000  40.0%     -    3s
     0     0    6.00000    0    7   10.00000    6.00000  40.0%     -    3s
     0     0    6.00000    0    6   10.00000    6.00000  40.0%     -    3s
     0     0    6.00000    0    6   10.00000    6.00000  40.0%     -    3s
     0     0    6.00000    0   17   10.00000    6.00000  40.0%     -    3s
     0     0    6.00000    0   11   10.00000    6.00000  40.0%     -    4s
     0     0    6.00000    0   10   10.00000    6.00000  40.0%     -    4s
     0     0    6.00000    0   14   10.00000    6.00000  40.0%     -    4s
     0     0    6.00000    0   14   10.00000    6.00000  40.0%     -    4s
     0     2    6.00000    0   14   10.00000    6.00000  40.0%     -    4s
   726   452    7.00000   71   14   10.00000    6.00000  40.0%  22.8    5s
H  778   447                       9.0000000    6.00000  33.3%  66.2    6s
H 1358   427                       8.0000000    6.00000  25.0%  45.2    7s
 10003  4768    6.00000   64   23    8.00000    6.00000  25.0%  12.7   10s
 21174  8170    7.00000  171   17    8.00000    6.00000  25.0%  10.5   15s
H43528  1785                       7.0000000    6.00000  14.3%   9.0   19s
 43861  1781    6.00000   59   14    7.00000    6.00000  14.3%   9.0   21s
 56594   849 infeasible   97         7.00000    6.00000  14.3%   9.0   25s
 83229  1050 infeasible  113         7.00000    6.00000  14.3%   9.1   30s
 104777  2056    6.00000   94   14    7.00000    6.00000  14.3%   9.4   37s
 119863   682 infeasible   79         7.00000    6.00000  14.3%   9.8   40s
 152020   991 infeasible   81         7.00000    6.00000  14.3%  10.3   45s
 184092  1190 infeasible   77         7.00000    6.00000  14.3%  10.6   50s
 215552   895 infeasible   86         7.00000    6.00000  14.3%  10.8   55s
 244860   336 infeasible   83         7.00000    6.00000  14.3%  11.1   60s

Cutting planes:
  MIR: 1
  Flow cover: 8
  Inf proof: 11
  Zero half: 1

Explored 257741 nodes (2923775 simplex iterations) in 62.39 seconds
Thread count was 4 (of 4 available processors)

Solution count 9: 7 8 9 ... 15

Optimal solution found (tolerance 1.00e-04)
Best objective 7.000000000000e+00, best bound 7.000000000000e+00, gap 0.0000%
